# Objective value = 1.9645480510964517e+03
x[0] 1
x[1] 0
x[2] 0
x[3] 1
x[4] 0
x[5] 1
x[6] 0
x[7] 0
x[8] 1
x[9] 1
x[10] 0
x[11] 0
x[12] 0
x[13] 1
x[14] 0
x[15] 0
x[16] 1
x[17] 0
x[18] 0
x[19] 1
x[20] 0
x[21] 1
x[22] 0
x[23] 1
x[24] 1
x[25] 0
x[26] 1
x[27] 0
x[28] 0
x[29] 0
x[30] 1
x[31] 1
x[32] 1
x[33] 0
x[34] 1
x[35] 0
x[36] 0
x[37] 1
x[38] 1
x[39] 0
x[40] 1
x[41] 1
x[42] 1
x[43] 1
x[44] 1
x[45] 1
x[46] 1
x[47] 1
x[48] 0
x[49] 1
x[50] 1
x[51] 1
x[52] 1
x[53] 0
x[54] 1
x[55] 1
x[56] 0
x[57] 1
x[58] 1
x[59] 0
x[60] 1
x[61] 1
x[62] 1
x[63] 0
x[64] 1
x[65] 0
x[66] 0
x[67] 0
x[68] 0
x[69] 1
x[70] 1
x[71] 1
x[72] 1
x[73] 1
x[74] 1
x[75] 0
x[76] 0
x[77] 0
x[78] 0
x[79] 0
x[80] 1
x[81] 1
x[82] 1
x[83] 0
x[84] 1
x[85] 1
x[86] 1
x[87] 0
x[88] 1
x[89] 1
x[90] 0
x[91] 0
x[92] 0
x[93] 1
x[94] 1
x[95] 0
x[96] 1
x[97] 1
x[98] 0
x[99] 1
x[100] 1
x[101] 0
x[102] 1
x[103] 1
x[104] 1
x[105] 1
x[106] 1
x[107] 1
x[108] 0
x[109] 0
x[110] 0
x[111] 1
x[112] 1
x[113] 0
x[114] 0
x[115] 1
x[116] 0
x[117] 0
x[118] 0
x[119] 0
x[120] 1
x[121] 1
x[122] 1
x[123] 1
x[124] 0
x[125] 1
x[126] 1
x[127] 1
x[128] 1
x[129] 0
x[130] 0
x[131] 1
x[132] 0
x[133] 0
x[134] 1
x[135] 1
x[136] 1
x[137] 1
x[138] 0
x[139] 0
x[140] 1
x[141] 0
x[142] 0
x[143] 1
x[144] 1
x[145] 1
x[146] 0
x[147] 1
x[148] 0
x[149] 0
x[150] 1
x[151] 0
x[152] 0
x[153] 0
x[154] 1
x[155] 1
x[156] 1
x[157] 0
x[158] 0
x[159] 0
x[160] 1
x[161] 1
x[162] 0
x[163] 0
x[164] 1
x[165] 0
x[166] 1
x[167] 1
x[168] 0
x[169] 0
x[170] 0
x[171] 1
x[172] 1
x[173] 1
x[174] 1
x[175] 0
x[176] 1
x[177] 0
x[178] 1
x[179] 1
x[180] 0
x[181] 1
x[182] 1
x[183] 1
x[184] 0
x[185] 0
x[186] 0
x[187] 0
x[188] 0
x[189] 1
x[190] 1
x[191] 1
x[192] 1
x[193] 1
x[194] 0
x[195] 1
x[196] 0
x[197] 1
x[198] 1
x[199] 1
x[200] 1
x[201] 0
x[202] 1
x[203] 0
x[204] 1
x[205] 0
x[206] 1
x[207] 0
x[208] 1
x[209] 1
x[210] 0
x[211] 0
x[212] 0
x[213] 1
x[214] 0
x[215] 1
x[216] 1
x[217] 0
x[218] 1
x[219] 1
x[220] 1
x[221] 0
x[222] 1
x[223] 1
x[224] 1
x[225] 1
x[226] 0
x[227] 0
x[228] 0
x[229] 0
x[230] 1
x[231] 1
x[232] 1
x[233] 1
x[234] 1
x[235] 0
x[236] 0
x[237] 0
x[238] 1
x[239] 1
x[240] 1
x[241] 0
x[242] 0
x[243] 0
x[244] 0
x[245] 0
x[246] 0
x[247] 0
x[248] 0
x[249] 0
x[250] 1
x[251] 1
x[252] 0
x[253] 1
x[254] 1
x[255] 0
x[256] 1
x[257] 0
x[258] 1
x[259] 0
x[260] 0
x[261] 1
x[262] 1
x[263] 1
x[264] 0
x[265] 1
x[266] 1
x[267] 1
x[268] 1
x[269] 1
x[270] 1
x[271] 0
x[272] 1
x[273] 0
x[274] 0
x[275] 0
x[276] 0
x[277] 0
x[278] 1
x[279] 1
x[280] 1
x[281] 1
x[282] 1
x[283] 0
x[284] 0
x[285] 1
x[286] 1
x[287] 0
x[288] 1
x[289] 0
x[290] 0
x[291] 1
x[292] 1
x[293] 0
x[294] 1
x[295] 0
x[296] 1
x[297] 1
x[298] 1
x[299] 0
x[300] 1
x[301] 1
x[302] 0
x[303] 0
x[304] 0
x[305] 0
x[306] 1
x[307] 1
x[308] 1
x[309] 1
x[310] 1
x[311] 1
x[312] 0
x[313] 1
x[314] 1
x[315] 1
x[316] 0
x[317] 0
x[318] 1
x[319] 1
x[320] 0
x[321] 1
x[322] 1
x[323] 0
x[324] 1
x[325] 1
x[326] 1
x[327] 1
x[328] 0
x[329] 1
x[330] 0
x[331] 1
x[332] 1
x[333] 1
x[334] 1
x[335] 0
x[336] 0
x[337] 1
x[338] 0
x[339] 1
x[340] 0
x[341] 1
x[342] 1
x[343] 1
x[344] 1
x[345] 1
x[346] 0
x[347] 0
x[348] 0
x[349] 0
x[350] 0
x[351] 0
x[352] 0
x[353] 0
x[354] 1
x[355] 1
x[356] 1
x[357] 0
x[358] 1
x[359] 0
x[360] 1
x[361] 1
x[362] 0
x[363] 0
x[364] 0
x[365] 0
x[366] 1
x[367] 0
x[368] 1
x[369] 1
x[370] 1
x[371] 1
x[372] 0
x[373] 1
x[374] 1
x[375] 0
x[376] 1
x[377] 1
x[378] 0
x[379] 1
x[380] 0
x[381] 1
x[382] 0
x[383] 0
x[384] 1
x[385] 0
x[386] 0
x[387] 1
x[388] 1
x[389] 0
x[390] 1
x[391] 1
x[392] 0
x[393] 0
x[394] 0
x[395] 1
x[396] 1
x[397] 1
x[398] 1
x[399] 1
x[400] 1
x[401] 1
x[402] 1
x[403] 0
x[404] 0
x[405] 0
x[406] 1
x[407] 0
x[408] 1
x[409] 1
x[410] 0
x[411] 1
x[412] 0
x[413] 1
x[414] 0
x[415] 1
x[416] 1
x[417] 0
x[418] 1
x[419] 0
x[420] 1
x[421] 0
x[422] 0
x[423] 0
x[424] 1
x[425] 0
x[426] 1
x[427] 0
x[428] 0
x[429] 1
x[430] 1
x[431] 0
x[432] 0
x[433] 1
x[434] 1
x[435] 1
x[436] 0
x[437] 1
x[438] 1
x[439] 0
x[440] 0
x[441] 0
x[442] 0
x[443] 1
x[444] 0
x[445] 0
x[446] 0
x[447] 1
x[448] 0
x[449] 1
x[450] 0
x[451] 0
x[452] 0
x[453] 0
x[454] 1
x[455] 0
x[456] 1
x[457] 1
x[458] 0
x[459] 1
x[460] 1
x[461] 1
x[462] 1
x[463] 1
x[464] 1
x[465] 1
x[466] 0
x[467] 0
x[468] 0
x[469] 1
x[470] 0
x[471] 1
x[472] 0
x[473] 1
x[474] 1
x[475] 1
x[476] 0
x[477] 1
x[478] 1
x[479] 0
x[480] 1
x[481] 0
x[482] 1
x[483] 0
x[484] 1
x[485] 0
x[486] 0
x[487] 1
x[488] 1
x[489] 1
x[490] 1
x[491] 0
x[492] 0
x[493] 0
x[494] 1
x[495] 0
x[496] 1
x[497] 1
x[498] 1
x[499] 0
x[500] 1
x[501] 0
x[502] 0
x[503] 1
x[504] 0
x[505] 1
x[506] 1
x[507] 0
x[508] 1
x[509] 0
x[510] 1
x[511] 0
x[512] 0
x[513] 1
x[514] 1
x[515] 0
x[516] 1
x[517] 1
x[518] 1
x[519] 1
x[520] 0
x[521] 1
x[522] 1
x[523] 1
x[524] 0
x[525] 1
x[526] 1
x[527] 1
x[528] 1
x[529] 1
x[530] 1
x[531] 1
x[532] 0
x[533] 1
x[534] 0
x[535] 1
x[536] 0
x[537] 0
x[538] 0
x[539] 1
x[540] 1
x[541] 0
x[542] 1
x[543] 1
x[544] 1
x[545] 0
x[546] 0
x[547] 0
x[548] 1
x[549] 0
x[550] 0
x[551] 1
x[552] 0
x[553] 0
x[554] 0
x[555] 0
x[556] 0
x[557] 0
x[558] 1
x[559] 1
x[560] 1
x[561] 0
x[562] 1
x[563] 1
x[564] 1
x[565] 1
x[566] 0
x[567] 1
x[568] 0
x[569] 0
x[570] 1
x[571] 1
x[572] 0
x[573] 0
x[574] 1
x[575] 1
x[576] 1
x[577] 0
x[578] 1
x[579] 1
x[580] 1
x[581] 1
x[582] 0
x[583] 0
x[584] 0
x[585] 1
x[586] 0
x[587] 0
x[588] 1
x[589] 1
x[590] 0
x[591] 1
x[592] 0
x[593] 1
x[594] 1
x[595] 1
x[596] 1
x[597] 1
x[598] 1
x[599] 1
x[600] 1
x[601] 1
x[602] 1
x[603] 0
x[604] 1
x[605] 1
x[606] 1
x[607] 1
x[608] 0
x[609] 1
x[610] 0
x[611] 1
x[612] 0
x[613] 0
x[614] 0
x[615] 0
x[616] 0
x[617] 1
x[618] 1
x[619] 1
x[620] 1
x[621] 1
x[622] 1
x[623] 1
x[624] 1
x[625] 1
x[626] 1
x[627] 1
x[628] 1
x[629] 1
x[630] 1
x[631] 1
x[632] 0
x[633] 1
x[634] 1
x[635] 1
x[636] 1
x[637] 1
x[638] 0
x[639] 0
x[640] 1
x[641] 1
x[642] 0
x[643] 0
x[644] 0
x[645] 1
x[646] 0
x[647] 0
x[648] 1
x[649] 0
x[650] 1
x[651] 1
x[652] 0
x[653] 1
x[654] 1
x[655] 0
x[656] 1
x[657] 1
x[658] 0
x[659] 0
x[660] 1
x[661] 1
x[662] 1
x[663] 1
x[664] 0
x[665] 1
x[666] 1
x[667] 0
x[668] 1
x[669] 1
x[670] 1
x[671] 0
x[672] 0
x[673] 0
x[674] 1
x[675] 0
x[676] 0
x[677] 0
x[678] 0
x[679] 1
x[680] 1
x[681] 1
x[682] 1
x[683] 0
x[684] 0
x[685] 1
x[686] 1
x[687] 0
x[688] 1
x[689] 1
x[690] 1
x[691] 1
x[692] 0
x[693] 0
x[694] 0
x[695] 0
x[696] 1
x[697] 1
x[698] 1
x[699] 1
x[700] 1
x[701] 1
x[702] 0
x[703] 0
x[704] 1
x[705] 1
x[706] 1
x[707] 1
x[708] 0
x[709] 0
x[710] 1
x[711] 1
x[712] 1
x[713] 0
x[714] 1
x[715] 1
x[716] 0
x[717] 0
x[718] 1
x[719] 1
x[720] 1
x[721] 0
x[722] 1
x[723] 0
x[724] 1
x[725] 0
x[726] 1
x[727] 1
x[728] 1
x[729] 1
x[730] 0
x[731] 0
x[732] 1
x[733] 1
x[734] 1
x[735] 1
x[736] 1
x[737] 1
x[738] 0
x[739] 1
x[740] 0
x[741] 1
x[742] 0
x[743] 0
x[744] 1
x[745] 0
x[746] 1
x[747] 1
x[748] 0
x[749] 0
x[750] 0
x[751] 1
x[752] 0
x[753] 1
x[754] 1
x[755] 1
x[756] 1
x[757] 0
x[758] 1
x[759] 1
x[760] 1
x[761] 1
x[762] 0
x[763] 0
x[764] 1
x[765] 0
x[766] 0
x[767] 0
x[768] 0
x[769] 0
x[770] 1
x[771] 0
x[772] 1
x[773] 1
x[774] 1
x[775] 0
x[776] 1
x[777] 1
x[778] 1
x[779] 0
x[780] 1
x[781] 1
x[782] 1
x[783] 0
x[784] 1
x[785] 0
x[786] 0
x[787] 0
x[788] 1
x[789] 0
x[790] 1
x[791] 0
x[792] 0
x[793] 1
x[794] 0
x[795] 1
x[796] 0
x[797] 1
x[798] 1
x[799] 0
x[800] 0
x[801] 0
x[802] 0
x[803] 0
x[804] 1
x[805] 1
x[806] 1
x[807] 0
x[808] 1
x[809] 0
x[810] 0
x[811] 0
x[812] 0
x[813] 0
x[814] 0
x[815] 0
x[816] 0
x[817] 0
x[818] 1
x[819] 0
x[820] 0
x[821] 1
x[822] 0
x[823] 1
x[824] 1
x[825] 0
x[826] 1
x[827] 0
x[828] 1
x[829] 1
x[830] 1
x[831] 1
x[832] 1
x[833] 1
x[834] 1
x[835] 1
x[836] 0
x[837] 0
x[838] 0
x[839] 1
x[840] 0
x[841] 0
x[842] 1
x[843] 0
x[844] 1
x[845] 0
x[846] 0
x[847] 1
x[848] 1
x[849] 1
x[850] 1
x[851] 0
x[852] 1
x[853] 0
x[854] 0
x[855] 1
x[856] 1
x[857] 1
x[858] 0
x[859] 0
x[860] 1
x[861] 1
x[862] 0
x[863] 1
x[864] 1
x[865] 1
x[866] 1
x[867] 0
x[868] 0
x[869] 0
x[870] 1
x[871] 0
x[872] 1
x[873] 1
x[874] 0
x[875] 0
x[876] 1
x[877] 1
x[878] 0
x[879] 1
x[880] 1
x[881] 1
x[882] 0
x[883] 1
x[884] 1
x[885] 0
x[886] 1
x[887] 0
x[888] 0
x[889] 1
x[890] 0
x[891] 1
x[892] 1
x[893] 0
x[894] 0
x[895] 1
x[896] 1
x[897] 0
x[898] 0
x[899] 1
x[900] 0
x[901] 0
x[902] 0
x[903] 1
x[904] 0
x[905] 1
x[906] 1
x[907] 1
x[908] 0
x[909] 1
x[910] 1
x[911] 0
x[912] 0
x[913] 0
x[914] 0
x[915] 1
x[916] 0
x[917] 1
x[918] 1
x[919] 0
x[920] 0
x[921] 1
x[922] 1
x[923] 0
x[924] 1
x[925] 0
x[926] 0
x[927] 1
x[928] 1
x[929] 0
x[930] 1
x[931] 0
x[932] 0
x[933] 1
x[934] 1
x[935] 1
x[936] 1
x[937] 1
x[938] 1
x[939] 1
x[940] 1
x[941] 0
x[942] 1
x[943] 1
x[944] 0
x[945] 1
x[946] 0
x[947] 0
x[948] 1
x[949] 1
x[950] 1
x[951] 1
x[952] 0
x[953] 1
x[954] 0
x[955] 0
x[956] 0
x[957] 1
x[958] 1
x[959] 1
x[960] 1
x[961] 0
x[962] 1
x[963] 0
x[964] 1
x[965] 1
x[966] 0
x[967] 0
x[968] 1
x[969] 0
x[970] 1
x[971] 0
x[972] 1
x[973] 1
x[974] 1
x[975] 0
x[976] 1
x[977] 0
x[978] 1
x[979] 1
x[980] 0
x[981] 0
x[982] 0
x[983] 1
x[984] 0
x[985] 0
x[986] 1
x[987] 1
x[988] 0
x[989] 1
x[990] 1
x[991] 1
x[992] 0
x[993] 1
x[994] 1
x[995] 0
x[996] 1
x[997] 1
x[998] 0
x[999] 0
